param N := 4;
param M := 80;

param nu := 1.0;

param X : 1 2 3 4 :=
1 4.5 2.3 1.3 0.3
2 4.9 3.1 1.5 0.1
3 5.4 3.7 1.5 0.2
4 6.1 2.8 4.0 1.3
5 5.1 3.5 1.4 0.3
6 5.5 2.6 4.4 1.2
7 5.0 3.4 1.6 0.4
8 6.1 2.9 4.7 1.4
9 5.5 2.4 3.8 1.1
10 6.6 3.0 4.4 1.4
11 6.2 2.9 4.3 1.3
12 6.4 2.9 4.3 1.3
13 5.4 3.9 1.7 0.4
14 6.2 2.2 4.5 1.5
15 5.5 2.3 4.0 1.3
16 5.7 4.4 1.5 0.4
17 6.7 3.0 5.0 1.7
18 5.5 2.4 3.7 1.0
19 5.1 3.7 1.5 0.4
20 5.8 2.6 4.0 1.2
21 4.8 3.0 1.4 0.1
22 6.7 3.1 4.7 1.5
23 5.6 3.0 4.1 1.3
24 6.8 2.8 4.8 1.4
25 6.9 3.1 4.9 1.5
26 5.4 3.4 1.7 0.2
27 4.8 3.4 1.6 0.2
28 4.4 2.9 1.4 0.2
29 5.2 3.4 1.4 0.2
30 4.6 3.4 1.4 0.3
31 5.6 2.5 3.9 1.1
32 5.0 2.3 3.3 1.0
33 6.7 3.1 4.4 1.4
34 7.0 3.2 4.7 1.4
35 6.3 3.3 4.7 1.6
36 4.9 3.1 1.5 0.1
37 6.4 3.2 4.5 1.5
38 6.0 2.7 5.1 1.6
39 5.6 2.9 3.6 1.3
40 5.8 4.0 1.2 0.2
41 6.3 2.5 4.9 1.5
42 4.6 3.2 1.4 0.2
43 5.1 3.3 1.7 0.5
44 5.0 3.5 1.3 0.3
45 5.7 2.8 4.1 1.3
46 5.0 2.0 3.5 1.0
47 6.0 2.9 4.5 1.5
48 6.5 2.8 4.6 1.5
49 5.1 3.4 1.5 0.2
50 5.0 3.2 1.2 0.2
51 5.5 4.2 1.4 0.2
52 5.0 3.5 1.6 0.6
53 5.0 3.6 1.4 0.2
54 5.7 2.9 4.2 1.3
55 4.6 3.6 1.0 0.2
56 5.1 3.8 1.9 0.4
57 5.6 2.7 4.2 1.3
58 6.0 2.2 4.0 1.0
59 6.3 2.3 4.4 1.3
60 5.4 3.9 1.3 0.4
61 5.1 2.5 3.0 1.1
62 5.8 2.7 3.9 1.2
63 5.3 3.7 1.5 0.2
64 5.7 3.8 1.7 0.3
65 4.8 3.1 1.6 0.2
66 5.2 3.5 1.5 0.2
67 6.6 2.9 4.6 1.3
68 4.6 3.1 1.5 0.2
69 4.8 3.0 1.4 0.3
70 5.2 4.1 1.5 0.1
71 5.6 3.0 4.5 1.5
72 5.9 3.0 4.2 1.5
73 5.0 3.3 1.4 0.2
74 5.4 3.4 1.5 0.4
75 4.9 3.1 1.5 0.1
76 4.7 3.2 1.3 0.2
77 5.7 2.8 4.5 1.3
78 5.1 3.8 1.5 0.3
79 4.3 3.0 1.1 0.1
80 5.5 2.5 4.0 1.3
;

param y :=
1 1.0
2 1.0
3 1.0
4 -1.0
5 1.0
6 -1.0
7 1.0
8 -1.0
9 -1.0
10 -1.0
11 -1.0
12 -1.0
13 1.0
14 -1.0
15 -1.0
16 1.0
17 -1.0
18 -1.0
19 1.0
20 -1.0
21 1.0
22 -1.0
23 -1.0
24 -1.0
25 -1.0
26 1.0
27 1.0
28 1.0
29 1.0
30 1.0
31 -1.0
32 -1.0
33 -1.0
34 -1.0
35 -1.0
36 1.0
37 -1.0
38 -1.0
39 -1.0
40 1.0
41 -1.0
42 1.0
43 1.0
44 1.0
45 -1.0
46 -1.0
47 -1.0
48 -1.0
49 1.0
50 1.0
51 1.0
52 1.0
53 1.0
54 -1.0
55 1.0
56 1.0
57 -1.0
58 -1.0
59 -1.0
60 1.0
61 -1.0
62 -1.0
63 1.0
64 1.0
65 1.0
66 1.0
67 -1.0
68 1.0
69 1.0
70 1.0
71 -1.0
72 -1.0
73 1.0
74 1.0
75 1.0
76 1.0
77 -1.0
78 1.0
79 1.0
80 -1.0
;

